language ESSENCE' 1.0
letting n be 5
letting squareType be [
  [1,1,1,1,1],
  [1,1,1,1,1],
  [1,1,1,1,1],
  [1,1,1,0,1],
  [1,1,1,1,1]]
letting clues be [
  [0,0,0,0,0],
  [0,0,0,0,0],
  [0,0,0,0,0],
  [0,0,0,0,0],
  [0,0,0,0,0]]
